\ Model MTZ_MODEL
\ LP format - for model browsing. Use MPS format to capture full model detail.
Minimize
  p[0,1] + p[0,2] + p[0,3] + p[0,4] + p[1,0] + p[1,2] + p[1,3] + p[1,4]
   + p[2,0] + p[2,1] + p[2,3] + p[2,4] + p[3,0] + p[3,1] + p[3,2] + p[3,4]
   + p[4,0] + p[4,1] + p[4,2] + p[4,3] + dc[0] + dc[1] + dc[2] + dc[3]
   + dc[4] + 0 difc[0,0] + 0 difc[0,1] + 0 difc[3,0] + 0 difc[3,1]
Subject To
 p2: p[0,1] - 12.19666704187435 z[0,1] >= 0
 p3: p[0,1] - 72.92764236227369 z[0,1] - dcc[0,1] >= -72.92764236227369
 R2: dcc[0,1] <= 72.92764236227369
 R3: x[0,1,0] - x[1,0,0] + dif[0,1,0] >= 0
 R4: - x[0,1,0] + x[1,0,0] + dif[0,1,0] >= 0
 R5: x[0,1,1] - x[1,0,1] + dif[0,1,1] >= 0
 R6: - x[0,1,1] + x[1,0,1] + dif[0,1,1] >= 0
 p2: p[0,2] - 10.12156057827364 z[0,2] >= 0
 p3: p[0,2] - 53.725547507469 z[0,2] - dcc[0,2] >= -53.725547507469
 R9: dcc[0,2] <= 53.725547507469
 R10: x[0,1,0] - x[2,0,0] + dif[0,2,0] >= 0
 R11: - x[0,1,0] + x[2,0,0] + dif[0,2,0] >= 0
 R12: x[0,1,1] - x[2,0,1] + dif[0,2,1] >= 0
 R13: - x[0,1,1] + x[2,0,1] + dif[0,2,1] >= 0
 p2: p[0,3] - 6.626509006358529 z[0,3] >= 0
 p3: p[0,3] - 34.78052263270246 z[0,3] - dcc[0,3] >= -34.78052263270246
 R16: dcc[0,3] <= 34.78052263270246
 R17: x[0,1,0] - x[3,0,0] + dif[0,3,0] >= 0
 R18: - x[0,1,0] + x[3,0,0] + dif[0,3,0] >= 0
 R19: x[0,1,1] - x[3,0,1] + dif[0,3,1] >= 0
 R20: - x[0,1,1] + x[3,0,1] + dif[0,3,1] >= 0
 p2: p[0,4] + 0.1428461149903981 z[0,4] >= 0
 p3: p[0,4] - 52.9289648269143 z[0,4] - dcc[0,4] >= -52.9289648269143
 R23: dcc[0,4] <= 52.9289648269143
 R24: x[0,1,0] - x[4,0,0] + dif[0,4,0] >= 0
 R25: - x[0,1,0] + x[4,0,0] + dif[0,4,0] >= 0
 R26: x[0,1,1] - x[4,0,1] + dif[0,4,1] >= 0
 R27: - x[0,1,1] + x[4,0,1] + dif[0,4,1] >= 0
 p2: p[1,0] - 12.19666704187435 z[1,0] >= 0
 p3: p[1,0] - 72.92764236227369 z[1,0] - dcc[1,0] >= -72.92764236227369
 R30: dcc[1,0] <= 72.92764236227369
 R31: - x[0,0,0] + x[1,1,0] + dif[1,0,0] >= 0
 R32: x[0,0,0] - x[1,1,0] + dif[1,0,0] >= 0
 R33: - x[0,0,1] + x[1,1,1] + dif[1,0,1] >= 0
 R34: x[0,0,1] - x[1,1,1] + dif[1,0,1] >= 0
 p2: p[1,2] + 7.486442853165356 z[1,2] >= 0
 p3: p[1,2] - 50.61121499652701 z[1,2] - dcc[1,2] >= -50.61121499652701
 R37: dcc[1,2] <= 50.61121499652701
 R38: x[1,1,0] - x[2,0,0] + dif[1,2,0] >= 0
 R39: - x[1,1,0] + x[2,0,0] + dif[1,2,0] >= 0
 R40: x[1,1,1] - x[2,0,1] + dif[1,2,1] >= 0
 R41: - x[1,1,1] + x[2,0,1] + dif[1,2,1] >= 0
 p2: p[1,3] - 32.6149470728644 z[1,3] >= 0
 p3: p[1,3] - 81.32814578820832 z[1,3] - dcc[1,3] >= -81.32814578820832
 R44: dcc[1,3] <= 81.32814578820832
 R45: x[1,1,0] - x[3,0,0] + dif[1,3,0] >= 0
 R46: - x[1,1,0] + x[3,0,0] + dif[1,3,0] >= 0
 R47: x[1,1,1] - x[3,0,1] + dif[1,3,1] >= 0
 R48: - x[1,1,1] + x[3,0,1] + dif[1,3,1] >= 0
 p2: p[1,4] - 18.37289495443156 z[1,4] >= 0
 p3: p[1,4] - 90.95567720966163 z[1,4] - dcc[1,4] >= -90.95567720966163
 R51: dcc[1,4] <= 90.95567720966163
 R52: x[1,1,0] - x[4,0,0] + dif[1,4,0] >= 0
 R53: - x[1,1,0] + x[4,0,0] + dif[1,4,0] >= 0
 R54: x[1,1,1] - x[4,0,1] + dif[1,4,1] >= 0
 R55: - x[1,1,1] + x[4,0,1] + dif[1,4,1] >= 0
 p2: p[2,0] - 10.12156057827364 z[2,0] >= 0
 p3: p[2,0] - 53.725547507469 z[2,0] - dcc[2,0] >= -53.725547507469
 R58: dcc[2,0] <= 53.725547507469
 R59: - x[0,0,0] + x[2,1,0] + dif[2,0,0] >= 0
 R60: x[0,0,0] - x[2,1,0] + dif[2,0,0] >= 0
 R61: - x[0,0,1] + x[2,1,1] + dif[2,0,1] >= 0
 R62: x[0,0,1] - x[2,1,1] + dif[2,0,1] >= 0
 p2: p[2,1] + 7.486442853165356 z[2,1] >= 0
 p3: p[2,1] - 50.61121499652701 z[2,1] - dcc[2,1] >= -50.61121499652701
 R65: dcc[2,1] <= 50.61121499652701
 R66: - x[1,0,0] + x[2,1,0] + dif[2,1,0] >= 0
 R67: x[1,0,0] - x[2,1,0] + dif[2,1,0] >= 0
 R68: - x[1,0,1] + x[2,1,1] + dif[2,1,1] >= 0
 R69: x[1,0,1] - x[2,1,1] + dif[2,1,1] >= 0
 p2: p[2,3] - 21.93860125887391 z[2,3] >= 0
 p3: p[2,3] - 62.34555766951855 z[2,3] - dcc[2,3] >= -62.34555766951855
 R72: dcc[2,3] <= 62.34555766951855
 R73: x[2,1,0] - x[3,0,0] + dif[2,3,0] >= 0
 R74: - x[2,1,0] + x[3,0,0] + dif[2,3,0] >= 0
 R75: x[2,1,1] - x[3,0,1] + dif[2,3,1] >= 0
 R76: - x[2,1,1] + x[3,0,1] + dif[2,3,1] >= 0
 p2: p[2,4] - 18.5036987751378 z[2,4] >= 0
 p3: p[2,4] - 78.97894852676066 z[2,4] - dcc[2,4] >= -78.97894852676066
 R79: dcc[2,4] <= 78.97894852676066
 R80: x[2,1,0] - x[4,0,0] + dif[2,4,0] >= 0
 R81: - x[2,1,0] + x[4,0,0] + dif[2,4,0] >= 0
 R82: x[2,1,1] - x[4,0,1] + dif[2,4,1] >= 0
 R83: - x[2,1,1] + x[4,0,1] + dif[2,4,1] >= 0
 p2: p[3,0] - 6.626509006358529 z[3,0] >= 0
 p3: p[3,0] - 34.78052263270246 z[3,0] - dcc[3,0] >= -34.78052263270246
 R86: dcc[3,0] <= 34.78052263270246
 R87: - x[0,0,0] + x[3,1,0] + dif[3,0,0] >= 0
 R88: x[0,0,0] - x[3,1,0] + dif[3,0,0] >= 0
 R89: - x[0,0,1] + x[3,1,1] + dif[3,0,1] >= 0
 R90: x[0,0,1] - x[3,1,1] + dif[3,0,1] >= 0
 p2: p[3,1] - 32.6149470728644 z[3,1] >= 0
 p3: p[3,1] - 81.32814578820832 z[3,1] - dcc[3,1] >= -81.32814578820832
 R93: dcc[3,1] <= 81.32814578820832
 R94: - x[1,0,0] + x[3,1,0] + dif[3,1,0] >= 0
 R95: x[1,0,0] - x[3,1,0] + dif[3,1,0] >= 0
 R96: - x[1,0,1] + x[3,1,1] + dif[3,1,1] >= 0
 R97: x[1,0,1] - x[3,1,1] + dif[3,1,1] >= 0
 p2: p[3,2] - 21.93860125887391 z[3,2] >= 0
 p3: p[3,2] - 62.34555766951855 z[3,2] - dcc[3,2] >= -62.34555766951855
 R100: dcc[3,2] <= 62.34555766951855
 R101: - x[2,0,0] + x[3,1,0] + dif[3,2,0] >= 0
 R102: x[2,0,0] - x[3,1,0] + dif[3,2,0] >= 0
 R103: - x[2,0,1] + x[3,1,1] + dif[3,2,1] >= 0
 R104: x[2,0,1] - x[3,1,1] + dif[3,2,1] >= 0
 p2: p[3,4] + 7.311947650639246 z[3,4] >= 0
 p3: p[3,4] - 54.71369439115176 z[3,4] - dcc[3,4] >= -54.71369439115176
 R107: dcc[3,4] <= 54.71369439115176
 R108: x[3,1,0] - x[4,0,0] + dif[3,4,0] >= 0
 R109: - x[3,1,0] + x[4,0,0] + dif[3,4,0] >= 0
 R110: x[3,1,1] - x[4,0,1] + dif[3,4,1] >= 0
 R111: - x[3,1,1] + x[4,0,1] + dif[3,4,1] >= 0
 p2: p[4,0] + 0.1428461149903981 z[4,0] >= 0
 p3: p[4,0] - 52.9289648269143 z[4,0] - dcc[4,0] >= -52.9289648269143
 R114: dcc[4,0] <= 52.9289648269143
 R115: - x[0,0,0] + x[4,1,0] + dif[4,0,0] >= 0
 R116: x[0,0,0] - x[4,1,0] + dif[4,0,0] >= 0
 R117: - x[0,0,1] + x[4,1,1] + dif[4,0,1] >= 0
 R118: x[0,0,1] - x[4,1,1] + dif[4,0,1] >= 0
 p2: p[4,1] - 18.37289495443157 z[4,1] >= 0
 p3: p[4,1] - 90.95567720966162 z[4,1] - dcc[4,1] >= -90.95567720966162
 R121: dcc[4,1] <= 90.95567720966162
 R122: - x[1,0,0] + x[4,1,0] + dif[4,1,0] >= 0
 R123: x[1,0,0] - x[4,1,0] + dif[4,1,0] >= 0
 R124: - x[1,0,1] + x[4,1,1] + dif[4,1,1] >= 0
 R125: x[1,0,1] - x[4,1,1] + dif[4,1,1] >= 0
 p2: p[4,2] - 18.5036987751378 z[4,2] >= 0
 p3: p[4,2] - 78.97894852676066 z[4,2] - dcc[4,2] >= -78.97894852676066
 R128: dcc[4,2] <= 78.97894852676066
 R129: - x[2,0,0] + x[4,1,0] + dif[4,2,0] >= 0
 R130: x[2,0,0] - x[4,1,0] + dif[4,2,0] >= 0
 R131: - x[2,0,1] + x[4,1,1] + dif[4,2,1] >= 0
 R132: x[2,0,1] - x[4,1,1] + dif[4,2,1] >= 0
 p2: p[4,3] + 7.311947650639246 z[4,3] >= 0
 p3: p[4,3] - 54.71369439115176 z[4,3] - dcc[4,3] >= -54.71369439115176
 R135: dcc[4,3] <= 54.71369439115176
 R136: - x[3,0,0] + x[4,1,0] + dif[4,3,0] >= 0
 R137: x[3,0,0] - x[4,1,0] + dif[4,3,0] >= 0
 R138: - x[3,0,1] + x[4,1,1] + dif[4,3,1] >= 0
 R139: x[3,0,1] - x[4,1,1] + dif[4,3,1] >= 0
 R140: z[0,1] + z[0,2] + z[0,3] + z[0,4] = 1
 R141: z[1,0] + z[1,2] + z[1,3] + z[1,4] = 1
 R142: z[2,0] + z[2,1] + z[2,3] + z[2,4] = 1
 R143: z[3,0] + z[3,1] + z[3,2] + z[3,4] = 1
 R144: z[4,0] + z[4,1] + z[4,2] + z[4,3] = 1
 R145: z[1,0] + z[2,0] + z[3,0] + z[4,0] = 1
 R146: z[0,1] + z[2,1] + z[3,1] + z[4,1] = 1
 R147: z[0,2] + z[1,2] + z[3,2] + z[4,2] = 1
 R148: z[0,3] + z[1,3] + z[2,3] + z[4,3] = 1
 R149: z[0,4] + z[1,4] + z[2,4] + z[3,4] = 1
 rest7: z[0,1] + z[1,0] <= 1
 rest7: z[0,2] + z[2,0] <= 1
 rest7: z[0,3] + z[3,0] <= 1
 rest7: z[0,4] + z[4,0] <= 1
 rest7: z[0,1] + z[1,0] <= 1
 rest7: z[1,2] + z[2,1] <= 1
 rest7: z[1,3] + z[3,1] <= 1
 rest7: z[1,4] + z[4,1] <= 1
 rest7: z[0,2] + z[2,0] <= 1
 rest7: z[1,2] + z[2,1] <= 1
 rest7: z[2,3] + z[3,2] <= 1
 rest7: z[2,4] + z[4,2] <= 1
 rest7: z[0,3] + z[3,0] <= 1
 rest7: z[1,3] + z[3,1] <= 1
 rest7: z[2,3] + z[3,2] <= 1
 rest7: z[3,4] + z[4,3] <= 1
 rest7: z[0,4] + z[4,0] <= 1
 rest7: z[1,4] + z[4,1] <= 1
 rest7: z[2,4] + z[4,2] <= 1
 rest7: z[3,4] + z[4,3] <= 1
 R170: 5 z[1,2] + sc[1] - sc[2] <= 4
 R171: 5 z[1,3] + sc[1] - sc[3] <= 4
 R172: 5 z[1,4] + sc[1] - sc[4] <= 4
 R173: 5 z[2,1] - sc[1] + sc[2] <= 4
 R174: 5 z[2,3] + sc[2] - sc[3] <= 4
 R175: 5 z[2,4] + sc[2] - sc[4] <= 4
 R176: 5 z[3,1] - sc[1] + sc[3] <= 4
 R177: 5 z[3,2] - sc[2] + sc[3] <= 4
 R178: 5 z[3,4] + sc[3] - sc[4] <= 4
 R179: 5 z[4,1] - sc[1] + sc[4] <= 4
 R180: 5 z[4,2] - sc[2] + sc[4] <= 4
 R181: 5 z[4,3] - sc[3] + sc[4] <= 4
 rest10: sc[0] = 0
 rest11: sc[1] >= 1
 rest11: sc[2] >= 1
 rest11: sc[3] >= 1
 rest11: sc[4] >= 1
 u0: landa[0,0] - landa[0,1] + min[0] - max[0] = 0
 u1: min[0] + max[0] = 2
 u2: 2 u[0] + max[0] <= 2
 u3: - 2 u[0] + min[0] <= 0
 R191: dc[0] = 35.06541155285402
 R192: landa[0,0] - sublanda[0,0,1] - 3 s[0,0,0] >= -2
 R193: landa[0,0] - sublanda[0,0,1] + 3 s[0,0,0] <= 4
 R194: landa[0,0] - sublanda[0,0,2] - 3 s[0,0,1] >= -1
 R195: landa[0,0] - sublanda[0,0,2] + 3 s[0,0,1] <= 5
 R196: sublanda[0,0,0] - s[0,0,0] <= 0
 R197: sublanda[0,0,2] - s[0,0,1] <= 0
 R198: sublanda[0,0,1] - s[0,0,0] - s[0,0,1] <= 0
 R199: s[0,0,0] + s[0,0,1] = 1
 R200: sublanda[0,0,0] + sublanda[0,0,1] + sublanda[0,0,2] = 1
 seg1: x[0,0,0] - 64.28995513756141 sublanda[0,0,0]
   - 58.95949608550553 sublanda[0,0,1] - 74.6401138237012 sublanda[0,0,2]
   = 0
 seg1: x[0,0,1] - 49.06894477584886 sublanda[0,0,0]
   - 65.77169838527244 sublanda[0,0,1] - 73.61478446100438 sublanda[0,0,2]
   = 0
 R203: landa[0,1] - sublanda[0,1,1] - 3 s[0,1,0] >= -2
 R204: landa[0,1] - sublanda[0,1,1] + 3 s[0,1,0] <= 4
 R205: landa[0,1] - sublanda[0,1,2] - 3 s[0,1,1] >= -1
 R206: landa[0,1] - sublanda[0,1,2] + 3 s[0,1,1] <= 5
 R207: sublanda[0,1,0] - s[0,1,0] <= 0
 R208: sublanda[0,1,2] - s[0,1,1] <= 0
 R209: sublanda[0,1,1] - s[0,1,0] - s[0,1,1] <= 0
 R210: s[0,1,0] + s[0,1,1] = 1
 R211: sublanda[0,1,0] + sublanda[0,1,1] + sublanda[0,1,2] = 1
 seg1: x[0,1,0] - 64.28995513756141 sublanda[0,1,0]
   - 58.95949608550553 sublanda[0,1,1] - 74.6401138237012 sublanda[0,1,2]
   = 0
 seg1: x[0,1,1] - 49.06894477584886 sublanda[0,1,0]
   - 65.77169838527244 sublanda[0,1,1] - 73.61478446100438 sublanda[0,1,2]
   = 0
 R214: dc[1] <= 34.57376803850543
 R215: - x[1,0,0] + x[1,1,0] + difc[1,0] >= 0
 R216: x[1,0,0] - x[1,1,0] + difc[1,0] >= 0
 R217: - x[1,0,1] + x[1,1,1] + difc[1,1] >= 0
 R218: x[1,0,1] - x[1,1,1] + difc[1,1] >= 0
 R219: dc[2] <= 30.2824856698677
 envConv: mu[2,0] + mu[2,1] + mu[2,2] + mu[2,3] + mu[2,4] = 1
 inP1: x[2,0,0] - 87.20779941746983 mu[2,0] - 74.36278567189034 mu[2,1]
   - 57.23035761721151 mu[2,2] - 70.07537136279106 mu[2,3]
   - 87.20779941746984 mu[2,4] = 0
 inP1: x[2,1,0] - 87.20779941746983 mu[2,0] - 74.36278567189034 mu[2,1]
   - 57.23035761721151 mu[2,2] - 70.07537136279106 mu[2,3]
   - 87.20779941746984 mu[2,4] = 0
 inP1: x[2,0,1] - 32.92852154290935 mu[2,0] - 50.06094959758808 mu[2,1]
   - 37.21593585200846 mu[2,2] - 20.08350779732978 mu[2,3]
   - 32.92852154290945 mu[2,4] = 0
 inP1: x[2,1,1] - 32.92852154290935 mu[2,0] - 50.06094959758808 mu[2,1]
   - 37.21593585200846 mu[2,2] - 20.08350779732978 mu[2,3]
   - 32.92852154290945 mu[2,4] = 0
 R225: - x[2,0,0] + x[2,1,0] + difc[2,0] >= 0
 R226: x[2,0,0] - x[2,1,0] + difc[2,0] >= 0
 R227: - x[2,0,1] + x[2,1,1] + difc[2,1] >= 0
 R228: x[2,0,1] - x[2,1,1] + difc[2,1] >= 0
 u0: landa[3,0] - landa[3,1] + min[3] - max[3] = 0
 u1: min[3] + max[3] = 4
 u2: 4 u[3] + max[3] <= 4
 u3: - 4 u[3] + min[3] <= 0
 R233: dc[3] = 65.34170278539735
 R234: landa[3,0] - sublanda[3,0,1] - 5 s[3,0,0] >= -4
 R235: landa[3,0] - sublanda[3,0,1] + 5 s[3,0,0] <= 6
 R236: landa[3,0] - sublanda[3,0,2] - 5 s[3,0,1] >= -3
 R237: landa[3,0] - sublanda[3,0,2] + 5 s[3,0,1] <= 7
 R238: landa[3,0] - sublanda[3,0,3] - 5 s[3,0,2] >= -2
 R239: landa[3,0] - sublanda[3,0,3] + 5 s[3,0,2] <= 8
 R240: landa[3,0] - sublanda[3,0,4] - 5 s[3,0,3] >= -1
 R241: landa[3,0] - sublanda[3,0,4] + 5 s[3,0,3] <= 9
 R242: sublanda[3,0,0] - s[3,0,0] <= 0
 R243: sublanda[3,0,4] - s[3,0,3] <= 0
 R244: sublanda[3,0,1] - s[3,0,0] - s[3,0,1] <= 0
 R245: sublanda[3,0,2] - s[3,0,1] - s[3,0,2] <= 0
 R246: sublanda[3,0,3] - s[3,0,2] - s[3,0,3] <= 0
 R247: s[3,0,0] + s[3,0,1] + s[3,0,2] + s[3,0,3] = 1
 R248: sublanda[3,0,0] + sublanda[3,0,1] + sublanda[3,0,2]
   + sublanda[3,0,3] + sublanda[3,0,4] = 1
 seg1: x[3,0,0] - 61.00367655449028 sublanda[3,0,0]
   - 74.69044607772103 sublanda[3,0,1] - 64.37308086458219 sublanda[3,0,2]
   - 50.26835240275462 sublanda[3,0,3] - 66.21361397177118 sublanda[3,0,4]
   = 0
 seg1: x[3,0,1] - 73.34070433001047 sublanda[3,0,0]
   - 82.2580174174215 sublanda[3,0,1] - 69.59317996328642 sublanda[3,0,2]
   - 77.83349353129226 sublanda[3,0,3] - 74.28458296936014 sublanda[3,0,4]
   = 0
 R251: landa[3,1] - sublanda[3,1,1] - 5 s[3,1,0] >= -4
 R252: landa[3,1] - sublanda[3,1,1] + 5 s[3,1,0] <= 6
 R253: landa[3,1] - sublanda[3,1,2] - 5 s[3,1,1] >= -3
 R254: landa[3,1] - sublanda[3,1,2] + 5 s[3,1,1] <= 7
 R255: landa[3,1] - sublanda[3,1,3] - 5 s[3,1,2] >= -2
 R256: landa[3,1] - sublanda[3,1,3] + 5 s[3,1,2] <= 8
 R257: landa[3,1] - sublanda[3,1,4] - 5 s[3,1,3] >= -1
 R258: landa[3,1] - sublanda[3,1,4] + 5 s[3,1,3] <= 9
 R259: sublanda[3,1,0] - s[3,1,0] <= 0
 R260: sublanda[3,1,4] - s[3,1,3] <= 0
 R261: sublanda[3,1,1] - s[3,1,0] - s[3,1,1] <= 0
 R262: sublanda[3,1,2] - s[3,1,1] - s[3,1,2] <= 0
 R263: sublanda[3,1,3] - s[3,1,2] - s[3,1,3] <= 0
 R264: s[3,1,0] + s[3,1,1] + s[3,1,2] + s[3,1,3] = 1
 R265: sublanda[3,1,0] + sublanda[3,1,1] + sublanda[3,1,2]
   + sublanda[3,1,3] + sublanda[3,1,4] = 1
 seg1: x[3,1,0] - 61.00367655449028 sublanda[3,1,0]
   - 74.69044607772103 sublanda[3,1,1] - 64.37308086458219 sublanda[3,1,2]
   - 50.26835240275462 sublanda[3,1,3] - 66.21361397177118 sublanda[3,1,4]
   = 0
 seg1: x[3,1,1] - 73.34070433001047 sublanda[3,1,0]
   - 82.2580174174215 sublanda[3,1,1] - 69.59317996328642 sublanda[3,1,2]
   - 77.83349353129226 sublanda[3,1,3] - 74.28458296936014 sublanda[3,1,4]
   = 0
 R268: dc[4] <= 38.00901421672463
 R269: - x[4,0,0] + x[4,1,0] + difc[4,0] >= 0
 R270: x[4,0,0] - x[4,1,0] + difc[4,0] >= 0
 R271: - x[4,0,1] + x[4,1,1] + difc[4,1] >= 0
 R272: x[4,0,1] - x[4,1,1] + difc[4,1] >= 0
 qc0: [ - dcc[0,1] ^2 + dif[0,1,0] ^2 + dif[0,1,1] ^2 ] <= 0
 qc1: [ - dcc[0,2] ^2 + dif[0,2,0] ^2 + dif[0,2,1] ^2 ] <= 0
 qc2: [ - dcc[0,3] ^2 + dif[0,3,0] ^2 + dif[0,3,1] ^2 ] <= 0
 qc3: [ - dcc[0,4] ^2 + dif[0,4,0] ^2 + dif[0,4,1] ^2 ] <= 0
 qc4: [ - dcc[1,0] ^2 + dif[1,0,0] ^2 + dif[1,0,1] ^2 ] <= 0
 qc5: [ - dcc[1,2] ^2 + dif[1,2,0] ^2 + dif[1,2,1] ^2 ] <= 0
 qc6: [ - dcc[1,3] ^2 + dif[1,3,0] ^2 + dif[1,3,1] ^2 ] <= 0
 qc7: [ - dcc[1,4] ^2 + dif[1,4,0] ^2 + dif[1,4,1] ^2 ] <= 0
 qc8: [ - dcc[2,0] ^2 + dif[2,0,0] ^2 + dif[2,0,1] ^2 ] <= 0
 qc9: [ - dcc[2,1] ^2 + dif[2,1,0] ^2 + dif[2,1,1] ^2 ] <= 0
 qc10: [ - dcc[2,3] ^2 + dif[2,3,0] ^2 + dif[2,3,1] ^2 ] <= 0
 qc11: [ - dcc[2,4] ^2 + dif[2,4,0] ^2 + dif[2,4,1] ^2 ] <= 0
 qc12: [ - dcc[3,0] ^2 + dif[3,0,0] ^2 + dif[3,0,1] ^2 ] <= 0
 qc13: [ - dcc[3,1] ^2 + dif[3,1,0] ^2 + dif[3,1,1] ^2 ] <= 0
 qc14: [ - dcc[3,2] ^2 + dif[3,2,0] ^2 + dif[3,2,1] ^2 ] <= 0
 qc15: [ - dcc[3,4] ^2 + dif[3,4,0] ^2 + dif[3,4,1] ^2 ] <= 0
 qc16: [ - dcc[4,0] ^2 + dif[4,0,0] ^2 + dif[4,0,1] ^2 ] <= 0
 qc17: [ - dcc[4,1] ^2 + dif[4,1,0] ^2 + dif[4,1,1] ^2 ] <= 0
 qc18: [ - dcc[4,2] ^2 + dif[4,2,0] ^2 + dif[4,2,1] ^2 ] <= 0
 qc19: [ - dcc[4,3] ^2 + dif[4,3,0] ^2 + dif[4,3,1] ^2 ] <= 0
 inC1: - 120.554971964379 x[1,0,0] - 39.71940362639234 x[1,0,1] + [
   x[1,0,0] ^2 + x[1,0,1] ^2 ] <= -3728.946713347024
 inC1: - 120.554971964379 x[1,1,0] - 39.71940362639234 x[1,1,1] + [
   x[1,1,0] ^2 + x[1,1,1] ^2 ] <= -3728.946713347024
 qc22: [ - dc[1] ^2 + difc[1,0] ^2 + difc[1,1] ^2 ] <= 0
 qc23: [ - dc[2] ^2 + difc[2,0] ^2 + difc[2,1] ^2 ] <= 0
 inC1: - 81.64187006231423 x[4,0,0] - 141.8884165011327 x[4,0,1] + [
   x[4,0,0] ^2 + x[4,0,1] ^2 ] <= -6338.258130685881
 inC1: - 81.64187006231423 x[4,1,0] - 141.8884165011327 x[4,1,1] + [
   x[4,1,0] ^2 + x[4,1,1] ^2 ] <= -6338.258130685881
 qc26: [ - dc[4] ^2 + difc[4,0] ^2 + difc[4,1] ^2 ] <= 0
Bounds
 mu[2,0] <= 1
 mu[2,1] <= 1
 mu[2,2] <= 1
 mu[2,3] <= 1
 mu[2,4] <= 1
 sublanda[0,0,0] <= 1
 sublanda[0,1,0] <= 1
 sublanda[0,0,1] <= 1
 sublanda[0,1,1] <= 1
 sublanda[0,0,2] <= 1
 sublanda[0,1,2] <= 1
 sublanda[3,0,0] <= 1
 sublanda[3,1,0] <= 1
 sublanda[3,0,1] <= 1
 sublanda[3,1,1] <= 1
 sublanda[3,0,2] <= 1
 sublanda[3,1,2] <= 1
 sublanda[3,0,3] <= 1
 sublanda[3,1,3] <= 1
 sublanda[3,0,4] <= 1
 sublanda[3,1,4] <= 1
 sc[0] <= 4
 sc[1] <= 4
 sc[2] <= 4
 sc[3] <= 4
 sc[4] <= 4
Binaries
 z[0,1] z[0,2] z[0,3] z[0,4] z[1,0] z[1,2] z[1,3] z[1,4] z[2,0] z[2,1]
 z[2,3] z[2,4] z[3,0] z[3,1] z[3,2] z[3,4] z[4,0] z[4,1] z[4,2] z[4,3]
 s[0,0,0] s[0,1,0] s[0,0,1] s[0,1,1] s[3,0,0] s[3,1,0] s[3,0,1] s[3,1,1]
 s[3,0,2] s[3,1,2] s[3,0,3] s[3,1,3] u[0] u[3]
End
